c ren 1 -> 1
c ren 2 -> 2
c ren 3 -> 3
c ren 4 -> 4
c ren 5 -> 5
c ren 6 -> 6
c ren 7 -> 7
c ren 8 -> 8
c ren 9 -> 9
c ren 10 -> 10
c ren 11 -> 11
c ren 12 -> 12
c ren 13 -> 13
c ren 14 -> 14
c ren 15 -> 15
c ren 16 -> 16
c ren 17 -> 17
c ren 18 -> 18
c ren 19 -> 19
c ren 20 -> 20
c ren 21 -> 21
c ren 22 -> 22
c ren 23 -> 23
c ren 24 -> 24
c ren 25 -> 25
c ren 26 -> 26
c ren 27 -> 27
c ren 28 -> 28
c ren 29 -> 29
c ren 30 -> 30
c ren 31 -> 31
c ren 32 -> 32
c ren 33 -> 33
c ren 34 -> 34
c ren 35 -> 35
c ren 36 -> 36
c ren 37 -> 37
c ren 38 -> 38
c ren 39 -> 39
c ren 40 -> 40
c ren 41 -> 41
c ren 42 -> 42
c ren 43 -> 43
c ren 44 -> 44
c ren 45 -> 45
c ren 46 -> 46
c ren 47 -> 47
c ren 48 -> 48
c ren 49 -> 49
c ren 50 -> 50
c ren 51 -> 51
c ren 52 -> 52
c ren 53 -> 53
c ren 54 -> 54
c ren 55 -> 55
c ren 56 -> 56
c ren 57 -> 57
c ren 58 -> 58
c ren 59 -> 59
c ren 60 -> 60
c ren 61 -> 61
c ren 62 -> 62
c ren 63 -> 63
c ren 64 -> 64
c ren 65 -> 65
c ren 66 -> 66
c ren 67 -> 67
c ren 68 -> 68
c ren 69 -> 69
c ren 70 -> 70
c ren 71 -> 71
c ren 72 -> 72
c ren 73 -> 73
c ren 88 -> 74
c ren 95 -> 75
c ren 98 -> 76
c ren 101 -> 77
c ren 105 -> 78
c ren 106 -> 79
c ren 108 -> 80
c ren 109 -> 81
c ren 112 -> 82
c ren 113 -> 83
c ren 115 -> 84
c ren 116 -> 85
c ren 136 -> 86
c ren 143 -> 87
c ren 146 -> 88
c ren 149 -> 89
c ren 152 -> 90
c ren 153 -> 91
c ren 155 -> 92
c ren 156 -> 93
c ren 159 -> 94
c ren 160 -> 95
c ren 162 -> 96
c ren 163 -> 97
c ren 167 -> 98
c ren 168 -> 99
c ren 186 -> 100
c ren 195 -> 101
c ren 196 -> 102
c ren 197 -> 103
c ren 198 -> 104
c ren 203 -> 105
c ren 207 -> 106
c ren 211 -> 107
c ren 213 -> 108
c ren 214 -> 109
c ren 221 -> 110
c ren 222 -> 111
c ren 226 -> 112
c ren 243 -> 113
c ren 244 -> 114
c ren 246 -> 115
c ren 247 -> 116
c ren 255 -> 117
c ren 256 -> 118
c ren 258 -> 119
c ren 259 -> 120
c ren 265 -> 121
c ren 266 -> 122
c ren 268 -> 123
c ren 269 -> 124
c ren 274 -> 125
c ren 275 -> 126
c ren 277 -> 127
c ren 278 -> 128
c ren 281 -> 129
c ren 282 -> 130
c ren 288 -> 131
c ren 289 -> 132
c ren 296 -> 133
c ren 297 -> 134
c ren 299 -> 135
c ren 300 -> 136
c ren 317 -> 137
c ren 332 -> 138
c ren 337 -> 139
c ren 338 -> 140
c ren 353 -> 141
c ren 357 -> 142
c ren 378 -> 143
c ren 379 -> 144
c ren 381 -> 145
c ren 394 -> 146
c ren 395 -> 147
c ren 396 -> 148
p cnf 148 558
a 1 2 3 4 5 6 7 8 9 10 11 12 13 14 15 16 17 18 19 20 21 22 23 24 25 26 27 28 29 30 31 32 33 34 35 36 37 38 39 40 41 42 43 44 45 46 47 48 49 50 51 52 53 54 55 56 57 58 59 60 61 62 63 0
d 64 1 2 3 4 5 6 7 8 9 10 11 12 13 14 15 16 17 18 19 20 21 22 23 24 25 26 27 28 29 30 31 32 33 34 35 0
d 65 1 2 3 4 5 6 7 8 9 10 11 12 13 14 15 16 17 18 19 20 21 22 23 24 25 26 27 28 29 30 31 32 33 34 35 0
d 66 1 2 3 4 5 6 7 8 9 10 11 12 13 14 15 16 17 18 19 20 21 22 23 24 25 26 27 28 29 30 31 32 33 34 35 0
d 67 1 2 3 4 5 6 7 8 9 10 11 12 13 14 15 16 17 18 19 20 21 22 23 24 25 26 27 28 29 30 31 32 33 34 35 0
d 68 1 2 3 4 5 6 7 8 9 10 11 12 13 14 15 16 17 18 19 20 21 22 23 24 25 26 27 28 29 30 31 32 33 34 35 0
d 69 1 2 3 4 5 6 7 8 9 10 11 12 13 14 15 16 17 18 19 20 21 22 23 24 25 26 27 28 29 30 31 32 33 34 35 0
d 70 1 2 3 4 5 6 7 8 9 10 11 12 13 14 15 16 17 18 19 20 21 22 23 24 25 26 27 28 29 30 31 32 33 34 35 0
d 71 1 2 3 4 5 6 7 8 9 10 11 12 13 14 15 16 17 18 19 20 21 22 23 24 25 26 27 28 29 30 31 32 33 34 35 0
d 72 8 9 10 11 12 13 14 15 16 17 18 19 20 21 22 23 24 25 26 27 28 29 30 31 32 33 34 35 0
d 73 36 37 38 39 40 41 42 43 44 45 46 47 48 49 50 51 52 53 54 55 56 57 58 59 60 61 62 63 0
e 74 75 76 77 78 79 80 81 82 83 84 85 86 87 88 89 90 91 92 93 94 95 96 97 98 99 100 101 102 103 104 105 106 107 108 109 110 111 112 113 114 115 116 117 118 119 120 121 122 123 124 125 126 127 128 129 130 131 132 133 134 135 136 137 138 139 140 141 142 143 144 145 146 147 148 0
8 9 10 -11 36 37 38 -39 74 0
-8 36 -74 0
8 9 -10 -11 36 37 -38 -39 74 0
8 -36 -74 0
-8 -9 10 11 -36 -37 38 39 74 0
8 9 -10 11 36 37 -38 39 74 0
8 -9 10 11 36 -37 38 39 74 0
-8 -9 -10 11 -36 -37 -38 39 74 0
8 -9 -10 11 36 -37 -38 39 74 0
-9 37 -74 0
-8 9 10 11 -36 37 38 39 74 0
9 -37 -74 0
-8 -9 -10 -11 -36 -37 -38 -39 74 0
8 -9 -10 -11 36 -37 -38 -39 74 0
-8 9 10 -11 -36 37 38 -39 74 0
-8 9 -10 11 -36 37 -38 39 74 0
8 9 10 11 36 37 38 39 74 0
-10 38 -74 0
-8 -9 10 -11 -36 -37 38 -39 74 0
10 -38 -74 0
8 -9 10 -11 36 -37 38 -39 74 0
-8 9 -10 -11 -36 37 -38 -39 74 0
-11 39 -74 0
11 -39 -74 0
12 -13 40 -41 75 0
-12 40 -75 0
-12 -13 -40 -41 75 0
12 -40 -75 0
-12 13 -40 41 75 0
12 13 40 41 75 0
-13 41 -75 0
13 -41 -75 0
-14 -42 76 0
-14 42 -76 0
14 -42 -76 0
14 42 76 0
-15 -43 77 0
-15 43 -77 0
15 -43 -77 0
15 43 77 0
77 -86 0
20 21 22 23 48 49 50 51 -74 -75 -76 -77 78 79 80 81 82 83 84 85 86 0
20 21 22 -23 48 49 50 -51 -74 -75 -76 -77 78 79 80 81 82 83 84 85 86 0
20 21 -22 23 48 49 -50 51 -74 -75 -76 -77 78 79 80 81 82 83 84 85 86 0
-44 -78 0
16 -78 0
-16 44 78 0
44 -79 0
-16 -79 0
16 -44 79 0
-79 -86 0
20 21 -22 -23 48 49 -50 -51 -74 -75 -76 -77 78 79 80 81 82 83 84 85 86 0
-45 -80 0
17 -80 0
-17 45 80 0
45 -81 0
-17 -81 0
17 -45 81 0
-81 -86 0
20 -21 22 23 48 -49 50 51 -74 -75 -76 -77 78 79 80 81 82 83 84 85 86 0
20 -21 22 -23 48 -49 50 -51 -74 -75 -76 -77 78 79 80 81 82 83 84 85 86 0
-46 -82 0
18 -82 0
-18 46 82 0
46 -83 0
-18 -83 0
18 -46 83 0
-83 -86 0
20 -21 -22 23 48 -49 -50 51 -74 -75 -76 -77 78 79 80 81 82 83 84 85 86 0
-47 -84 0
19 -84 0
-19 47 84 0
47 -85 0
-19 -85 0
19 -47 85 0
-85 -86 0
20 -21 -22 -23 48 -49 -50 -51 -74 -75 -76 -77 78 79 80 81 82 83 84 85 86 0
-20 21 22 23 -48 49 50 51 -74 -75 -76 -77 78 79 80 81 82 83 84 85 86 0
-20 21 22 -23 -48 49 50 -51 -74 -75 -76 -77 78 79 80 81 82 83 84 85 86 0
-20 21 -22 -23 -48 49 -50 -51 -74 -75 -76 -77 78 79 80 81 82 83 84 85 86 0
-20 -21 22 -23 -48 -49 50 -51 -74 -75 -76 -77 78 79 80 81 82 83 84 85 86 0
-82 -86 0
-20 -21 22 23 -48 -49 50 51 -74 -75 -76 -77 78 79 80 81 82 83 84 85 86 0
-20 -21 -22 23 -48 -49 -50 51 -74 -75 -76 -77 78 79 80 81 82 83 84 85 86 0
76 -86 0
74 -86 0
75 -86 0
-78 -86 0
-80 -86 0
-20 21 -22 23 -48 49 -50 51 -74 -75 -76 -77 78 79 80 81 82 83 84 85 86 0
-84 -86 0
-20 -21 -22 -23 -48 -49 -50 -51 -74 -75 -76 -77 78 79 80 81 82 83 84 85 86 0
32 -33 60 -61 87 0
-32 -33 -60 -61 87 0
-32 33 -60 61 87 0
32 33 60 61 87 0
-34 -62 88 0
34 62 88 0
-35 -63 89 0
35 63 89 0
29 30 31 57 58 59 -86 -87 -88 -89 90 91 92 93 94 95 96 97 98 99 -100 0
29 30 31 57 58 59 72 -73 -86 -87 -88 -89 90 91 92 93 94 95 96 97 98 99 0
-52 -90 0
24 -90 0
52 -91 0
-24 -91 0
29 30 -31 57 58 -59 -86 -87 -88 -89 90 91 92 93 94 95 96 97 98 99 -100 0
-53 -92 0
25 -92 0
53 -93 0
-25 -93 0
29 30 -31 57 58 -59 72 -73 -86 -87 -88 -89 90 91 92 93 94 95 96 97 98 99 0
29 -30 31 57 -58 59 -86 -87 -88 -89 90 91 92 93 94 95 96 97 98 99 -100 0
-54 -94 0
26 -94 0
54 -95 0
-26 -95 0
29 -30 31 57 -58 59 72 -73 -86 -87 -88 -89 90 91 92 93 94 95 96 97 98 99 0
-55 -96 0
27 -96 0
55 -97 0
-27 -97 0
29 -30 -31 57 -58 -59 -86 -87 -88 -89 90 91 92 93 94 95 96 97 98 99 -100 0
29 -30 -31 57 -58 -59 72 -73 -86 -87 -88 -89 90 91 92 93 94 95 96 97 98 99 0
-29 30 31 -57 58 59 -86 -87 -88 -89 90 91 92 93 94 95 96 97 98 99 -100 0
-56 -98 0
28 -98 0
56 -99 0
-28 -99 0
-29 30 31 -57 58 59 72 -73 -86 -87 -88 -89 90 91 92 93 94 95 96 97 98 99 0
-29 30 -31 -57 58 -59 72 -73 -86 -87 -88 -89 90 91 92 93 94 95 96 97 98 99 0
-29 30 -31 -57 58 -59 -86 -87 -88 -89 90 91 92 93 94 95 96 97 98 99 -100 0
-29 -30 31 -57 -58 59 72 -73 -86 -87 -88 -89 90 91 92 93 94 95 96 97 98 99 0
-29 -30 31 -57 -58 59 -86 -87 -88 -89 90 91 92 93 94 95 96 97 98 99 -100 0
-29 -30 -31 -57 -58 -59 -86 -87 -88 -89 90 91 92 93 94 95 96 97 98 99 -100 0
-29 -30 -31 -57 -58 -59 72 -73 -86 -87 -88 -89 90 91 92 93 94 95 96 97 98 99 0
-73 -100 0
72 -100 0
-72 73 100 0
3 8 47 -112 131 0
-8 -19 -101 0
-6 8 53 54 -55 139 141 0
-26 -105 0
8 -107 0
-6 53 54 -55 -107 140 141 0
3 19 47 -112 131 0
19 112 -131 0
24 101 106 -139 0
8 -105 0
24 -52 101 106 140 0
6 25 26 53 54 55 105 139 140 141 0
-6 -8 25 -26 53 -54 -55 139 140 141 0
8 -106 0
-8 -19 -69 -132 0
19 24 25 26 101 0
-26 -107 0
14 -102 0
8 -102 0
-8 -14 102 0
12 -103 0
8 -103 0
-8 -12 103 0
10 -104 0
8 -104 0
-8 -10 104 0
42 -102 -104 121 0
-7 103 104 -121 0
65 -72 -102 146 147 148 0
-102 -103 -122 0
19 -47 112 132 0
-102 -105 0
-25 -105 0
-102 103 -117 0
-26 -106 0
-1 -67 -106 0
6 -8 -25 26 -53 54 55 107 139 140 141 0
-24 -106 0
-8 -25 -101 0
-8 -26 -101 0
6 -53 54 55 -105 140 141 0
-2 67 -107 0
24 -107 0
-6 -8 -25 26 -53 54 -55 107 139 140 141 0
9 -109 -110 0
-7 -8 -9 108 0
7 -108 0
9 -37 -109 111 0
-9 37 101 105 106 107 108 110 0
22 -109 0
8 -109 0
-8 -22 109 0
8 -108 0
-37 -108 111 0
37 101 105 106 107 108 109 110 0
-37 -107 111 0
101 105 106 107 108 109 -111 0
-37 -106 111 0
-108 -110 0
-37 -105 111 0
-107 -110 0
-37 -101 111 0
-106 -110 0
-37 -110 0
-105 -110 0
37 -111 0
-101 -110 0
-9 101 105 106 107 108 -111 0
-111 -137 0
-36 -50 -51 -64 -69 -109 110 111 113 114 115 116 117 118 119 120 121 122 123 124 125 127 128 129 130 131 132 133 134 135 136 137 0
-36 -50 51 64 -69 -109 110 111 113 114 115 116 117 118 119 120 121 122 123 124 125 127 128 129 130 131 132 133 134 135 136 137 0
-65 -112 0
4 -64 65 112 0
-4 -112 0
64 -112 0
-103 -105 0
65 -72 -103 146 147 148 0
-7 -38 103 104 114 0
-102 104 -113 0
3 -10 -38 104 114 0
-7 12 102 -104 -118 0
3 7 104 -113 0
3 -12 -40 103 118 0
-7 12 40 102 -104 117 0
-38 -102 104 114 0
7 103 -117 0
3 103 104 -113 0
-7 12 -38 102 -104 114 0
3 -38 103 104 114 0
-7 -10 -38 102 -103 114 0
-7 10 102 -103 -114 0
-7 10 38 102 -103 113 0
-7 -10 -38 104 114 0
-7 12 102 -113 0
-3 -7 40 102 103 104 -112 117 0
3 -40 103 104 118 0
7 -40 103 118 0
-3 7 102 103 -112 -114 0
-7 -10 -103 -122 0
-24 105 107 -140 0
7 102 -121 0
-7 -10 42 -103 121 0
10 102 -121 0
3 103 104 -117 0
10 -42 102 122 0
-7 -10 104 -113 0
-102 -103 -118 0
-3 7 38 102 103 -112 113 0
7 -104 -114 0
10 40 -103 117 0
-7 103 104 -113 0
7 -103 -118 0
102 103 -121 0
-38 -113 0
-7 -10 102 -103 -113 0
3 7 -38 104 114 0
38 -114 0
-102 -104 -114 0
-102 -104 -122 0
-114 -137 0
-3 -36 50 -51 -64 109 110 111 113 114 115 116 117 118 119 120 121 122 123 124 125 126 127 128 129 130 131 132 133 134 135 136 137 0
-3 -7 102 103 104 -112 -118 0
-39 -115 0
66 -115 0
39 -66 115 0
39 -116 0
-66 -116 0
-39 66 116 0
-116 -137 0
-36 50 51 64 109 110 111 113 114 115 116 117 118 119 120 121 122 123 124 125 126 127 128 129 130 131 132 133 134 135 136 137 0
-3 -36 50 -51 -64 69 110 111 113 114 115 116 117 118 119 120 121 122 123 124 126 127 128 129 130 132 133 134 135 136 137 0
-36 50 51 64 69 110 111 113 114 115 116 117 118 119 120 121 122 123 124 126 127 128 129 130 132 133 134 135 136 137 0
3 -12 103 -117 0
42 -102 -103 121 0
7 38 -104 113 0
40 -102 -103 117 0
3 -10 104 -113 0
10 -103 -118 0
7 -38 -103 104 114 0
-40 -117 0
7 -42 102 122 0
40 -118 0
-10 -103 104 114 0
-118 -137 0
-4 -36 50 -51 -64 109 110 111 113 114 115 116 117 118 119 120 121 122 123 124 125 126 127 128 129 130 131 132 133 134 135 136 137 0
-41 -119 0
70 -119 0
41 -70 119 0
41 -120 0
-70 -120 0
-41 70 120 0
-120 -137 0
-4 -36 50 -51 -64 69 110 111 113 114 115 116 117 118 119 120 121 122 123 124 126 127 128 129 130 131 132 133 134 135 136 137 0
3 4 -36 -50 -51 -64 109 110 111 113 114 115 116 117 118 119 120 121 122 123 124 125 126 127 128 129 130 131 132 133 134 135 136 137 0
7 -102 -122 0
-7 -42 103 104 122 0
-10 -103 104 -113 0
65 -72 -104 146 147 148 0
7 40 -103 117 0
-7 -10 -40 102 -103 118 0
-42 -121 0
7 42 -102 121 0
-104 -105 0
42 -122 0
38 -102 -104 113 0
-122 -137 0
-36 50 -51 -64 69 -109 110 111 113 114 115 116 117 118 119 120 121 122 123 124 126 127 128 129 130 131 132 133 134 135 136 137 0
-40 -102 103 118 0
-43 -123 0
1 -123 0
-1 43 123 0
43 -124 0
-1 -124 0
1 -43 124 0
-124 -137 0
-110 -137 0
-12 103 112 -117 0
36 -137 0
-7 -10 102 -103 -117 0
-12 -40 103 112 118 0
-113 -137 0
103 104 112 -117 0
-115 -137 0
7 -103 104 -113 0
-44 -125 0
69 -125 0
44 -69 125 0
44 -126 0
-69 -126 0
-44 69 126 0
-126 -137 0
-42 102 103 122 0
-38 103 104 112 114 0
-45 -127 0
65 -127 0
45 -65 127 0
45 -128 0
-65 -128 0
-45 65 128 0
-128 -137 0
7 -38 104 112 114 0
7 104 112 -113 0
-117 -137 0
-46 -129 0
2 -129 0
-2 46 129 0
46 -130 0
-2 -130 0
2 -46 130 0
-130 -137 0
-119 -137 0
-10 -38 104 112 114 0
-3 -47 69 132 0
-3 8 -131 0
-3 19 -131 0
8 -47 112 132 0
-3 8 -47 132 0
3 8 -112 -132 0
8 101 0
-8 -19 69 -131 0
-8 -19 -47 69 132 0
69 112 -131 0
-47 -131 0
-47 69 112 132 0
-19 65 -72 146 147 148 0
47 -132 0
8 112 -131 0
-3 69 -131 0
-132 -137 0
-121 -137 0
-123 -137 0
8 -48 -68 134 0
2 -8 -20 -68 -72 146 147 148 0
2 68 -134 0
20 -68 -133 0
-2 -48 134 0
2 -8 -20 -134 0
-48 -133 0
20 -48 -68 134 0
8 -68 -133 0
48 -134 0
-2 -133 0
2 48 68 133 0
-134 -137 0
-49 -135 0
71 -135 0
49 -71 135 0
49 -136 0
-71 -136 0
-49 71 136 0
-136 -137 0
-10 104 112 -113 0
-135 -137 0
-131 -137 0
-133 -137 0
103 104 112 -113 0
-129 -137 0
-127 -137 0
-125 -137 0
-40 103 104 112 118 0
5 7 60 61 -62 63 67 -68 138 0
5 7 60 61 62 63 67 68 138 0
-5 -7 -60 -61 -62 -63 -67 -68 138 0
5 7 60 61 62 -63 -67 68 138 0
5 -7 60 -61 -62 -63 -67 -68 138 0
-5 -7 -60 -61 62 -63 -67 68 138 0
5 -7 60 -61 62 -63 -67 68 138 0
-5 7 -60 61 -62 -63 -67 -68 138 0
-5 -7 -60 -61 62 63 67 68 138 0
5 -7 60 -61 62 63 67 68 138 0
-5 7 -60 61 -62 63 67 -68 138 0
-5 7 -60 61 62 -63 -67 68 138 0
5 7 60 61 -62 -63 -67 -68 138 0
-5 -7 -60 -61 -62 63 67 -68 138 0
5 -7 60 -61 -62 63 67 -68 138 0
-5 7 -60 61 62 63 67 68 138 0
-8 -24 -101 0
105 -106 -140 0
-107 -139 0
-52 101 -105 140 0
-24 52 105 107 139 0
-101 -140 0
-52 101 -107 140 0
-52 -139 0
52 -106 139 0
24 -105 0
52 -140 0
101 -105 -139 0
52 -101 139 0
-140 -141 0
25 -107 0
-6 -8 -25 -26 -53 -54 -55 139 140 141 0
6 8 53 54 55 139 140 141 0
-6 25 26 53 54 -55 105 139 140 141 0
6 -8 25 -26 53 -54 55 139 140 141 0
-8 -24 25 26 102 103 104 105 0
6 53 54 55 -107 140 141 0
-8 -24 -25 26 -67 107 0
2 -8 -24 -25 26 107 0
25 -106 0
-8 24 -25 26 67 106 0
-139 -141 0
1 -8 24 -25 26 106 0
6 -8 -25 -26 -53 -54 55 139 140 141 0
-6 -53 54 -55 -105 140 141 0
-3 19 -47 132 0
9 -108 0
-28 -108 142 0
8 56 57 143 0
29 56 -57 101 105 106 107 -108 -142 143 0
56 57 -107 143 0
28 -29 -56 -57 101 105 106 107 142 143 0
-29 -56 -57 101 105 106 107 108 142 143 0
29 -56 57 101 105 106 107 108 142 143 0
8 142 0
3 19 -112 -132 0
28 -29 56 -57 101 105 106 107 -142 143 0
-8 -28 108 -142 0
28 -108 -142 0
56 57 -101 143 0
28 108 142 0
28 29 56 57 -142 143 0
-8 -28 -29 145 0
29 56 57 108 -142 143 0
28 29 -56 57 101 105 106 107 142 143 0
56 57 -105 143 0
56 57 -106 143 0
8 -145 0
29 -145 0
-29 56 57 -108 -142 143 0
30 -144 0
8 -144 0
-8 -30 144 0
58 -59 -100 -137 -138 -141 -143 144 145 -147 0
-58 -59 -100 101 105 106 107 108 -137 -138 -141 -143 -144 -146 0
28 -145 0
-29 56 -57 101 105 106 107 108 -142 143 0
-58 59 -100 101 105 106 107 -108 -137 -138 -141 -143 -145 146 147 148 0
-72 -144 -145 146 147 148 0
-58 -59 -100 101 105 106 107 -108 -137 -138 -141 -143 144 -145 -148 0
58 -59 -100 -108 -137 -138 -141 -143 -144 -145 -147 0
58 -59 -100 -137 -138 -141 -143 144 145 -146 0
-58 -59 -100 101 105 106 107 -137 -138 -141 -143 -144 145 -146 0
58 59 -100 108 -137 -138 -141 -143 144 146 147 148 0
-58 59 -100 101 105 106 107 -137 -138 -141 -143 -144 145 146 147 148 0
58 -59 -100 -108 -137 -138 -141 -143 -144 -145 -148 0
-58 -59 -100 101 105 106 107 108 -137 -138 -141 -143 -144 -147 0
58 -59 -100 -108 -137 -138 -141 -143 -144 -145 -146 0
58 -59 -100 108 -137 -138 -141 -143 144 -148 0
58 59 -100 -107 -137 -138 -141 -143 146 147 148 0
-58 -59 -100 101 105 106 107 108 -137 -138 -141 -143 -144 -148 0
-58 -59 -100 101 105 106 107 -108 -137 -138 -141 -143 144 -145 -146 0
58 59 -100 -106 -137 -138 -141 -143 146 147 148 0
58 59 -100 -137 -138 -141 -143 144 145 146 147 148 0
-100 -108 -144 -145 146 147 148 0
58 59 -100 -105 -137 -138 -141 -143 146 147 148 0
-58 -59 -100 101 105 106 107 -137 -138 -141 -143 -144 145 -147 0
58 -59 -100 -107 -137 -138 -141 -143 -147 0
58 59 -100 -101 -137 -138 -141 -143 146 147 148 0
-58 -59 -100 101 105 106 107 -137 -138 -141 -143 -144 145 -148 0
58 -59 -100 -106 -137 -138 -141 -143 -147 0
58 -59 -100 -106 -137 -138 -141 -143 -146 0
58 -59 -100 -107 -137 -138 -141 -143 -146 0
58 -59 -100 -101 -137 -138 -141 -143 -146 0
58 -59 -100 -105 -137 -138 -141 -143 -146 0
58 -59 -100 -106 -137 -138 -141 -143 -148 0
-58 59 -100 101 105 106 107 108 -137 -138 -141 -143 -144 146 147 148 0
58 -59 -100 -101 -137 -138 -141 -143 -147 0
58 -59 -100 -137 -138 -141 -143 144 145 -148 0
31 -146 0
8 -146 0
-8 -31 146 0
6 -147 0
-2 -147 0
2 -6 147 0
5 -148 0
-1 -148 0
1 -5 148 0
58 -59 -100 -107 -137 -138 -141 -143 -148 0
8 -71 -72 147 148 0
-58 -59 -100 101 105 106 107 -108 -137 -138 -141 -143 144 -145 -147 0
58 -59 -100 -105 -137 -138 -141 -143 -148 0
58 -59 -100 108 -137 -138 -141 -143 144 -147 0
2 -8 -20 48 133 0
58 -59 -100 108 -137 -138 -141 -143 144 -146 0
13 27 -66 -68 -72 146 147 148 0
11 -13 -66 -72 146 147 148 0
13 32 -66 71 -72 146 147 148 0
-2 -67 69 -72 146 148 0
58 -59 -100 -105 -137 -138 -141 -143 -147 0
13 15 18 -71 -72 146 147 148 0
2 -67 -69 -72 146 147 148 0
58 -59 -100 -101 -137 -138 -141 -143 -148 0
35 -65 -67 -72 146 147 148 0
23 -64 -65 -72 146 147 148 0
-8 -21 -33 67 -72 146 147 148 0
-8 -11 -33 64 -72 146 147 148 0
11 -33 -64 -72 146 147 148 0
-8 -13 -21 71 -72 146 147 148 0
8 65 -72 147 148 0
-8 -33 -34 67 -72 146 147 148 0
-8 -11 -13 66 -72 146 147 148 0
-33 34 -67 -72 146 147 148 0
-8 -13 -34 68 -72 146 147 148 0
8 -66 -72 147 148 0
-8 13 -27 66 -68 -72 146 147 148 0
-8 13 -32 66 71 -72 146 147 148 0
21 -33 -67 -72 146 147 148 0
-13 21 -71 -72 146 147 148 0
-8 -35 -65 67 -72 146 147 148 0
-8 -19 47 -69 131 0
33 65 -72 146 147 148 0
8 -67 -72 147 148 0
-8 -23 64 -65 -72 146 147 148 0
8 -64 -72 147 148 0
-8 -13 34 -68 -72 146 147 148 0
1 67 -69 -72 146 147 148 0
-1 67 69 -72 146 147 0
8 9 10 11 12 13 14 15 16 17 18 19 20 21 22 23 24 25 26 27 28 29 30 31 32 33 34 35 72 0
